QBPP_HJ+_45_025_20_4
45 129 1842
4 35 33 17 14 5 7 2 29 45 44 7 42 33 36 31 13 44 34 47 47 40 39 44 18 18 13 17 34 15 39 29 16 23 44 41 29 29 36 50 39 21 15 48 21
    0    0    2    0    0    0    0    0    0    0    0    0    0    0    0   83    0   32    0    0   11    0    0    0    0    0    0   47    0    0    0    0   29    0   64    0   25    0    0    0    0    0    0    0   32
    0    0   72    0   62    0    0    0    0    0   11    0    0    0    0    0    0    0   29    0    0    0    0    0    0   20    0    0    0    0    0    0   19    0    0   56    0    0    0    0    0   67    0    0    0
    2   72    0    7    0    0    0   76    0    0    0    0   48   70    0    0    0    0    0   22    0    0    0    0    0    0    0    0    0   45    0   32    0   90    0    0   23    0   70    0   20   42   17   58    0
    0    0    7    0    0    0   23    0    0   30    0    0    0    0    0    0   46    0    0    2    0    0    0   86    0    0    0    0   42    0    0    0   15   10    0    0   14    0   84    0    0    0    0    0   24
    0   62    0    0    0    0    0    0    0    0   37    0   78    0    0   43    0   62    0    0    0    0    0    0    0   63    0    0   97    0    0    0    0    0    0    0   36   78    0   59    0    0   74    0   73
    0    0    0    0    0    0    0    0    0   32    0    0    0    0   40   32   51    0    0    0    0    0    0   19    0    0    0    0    0    0    0    0    0   98   30   46    0    0    0    0    0    0    0    6    0
    0    0    0   23    0    0    0    0    0    0    0   91    0    0    0    0    0    0    0    0    0   67    0    0    0   17    0    0    0    0   59    0    0   83    0    0    0    0   94    0   81    0    0    0    0
    0    0   76    0    0    0    0    0   58    0    0    0    5    0    0    0    0    0   24    0   90    0   55    0    0   65    0   56    0    0    0    0    0   93    0    0    0    0    0    0    0    0    7    0    0
    0    0    0    0    0    0    0   58    0    0   70   21    0    0    0   49   10    0   89    0    0    0   37    0    0    0   90    0    0    0    0    0    0    0    0    0    0    0    0    0    0   91    0    0    0
    0    0    0   30    0   32    0    0    0    0    0    0    0   42    0    0    0   31    0    0   40    0   28   30    0    0    0    0    0    0   38    0    0    0    0    0    0   91    0    0    0    0    0    0    0
    0   11    0    0   37    0    0    0   70    0    0    0    0    0    0    0    0    0    0    0   91    0    0   98    0    0    0   44    0    0    0    0    0   57   53    0    0   62   50   29    0    0    0    0    0
    0    0    0    0    0    0   91    0   21    0    0    0    0    0    0   27    0    0    0    0    0   71    0   63    0    0    0    0    0    0   11    0    0    0    0   38    0    0    0    0    0    0   68    0   34
    0    0   48    0   78    0    0    5    0    0    0    0    0    0    0    0    0   18    0    0   58    0    0    0   34    0   55   46   75    0    0   86    0    0    0    0   31    0    0    0    0   10    0    0    0
    0    0   70    0    0    0    0    0    0   42    0    0    0    0    0    0   81   40   22    0   47    0    0    0    0    0   37    0    0    0    0   21    0    0    0    0    0    0   77    0   34    0    0    0    0
    0    0    0    0    0   40    0    0    0    0    0    0    0    0    0   30    0   49   20    8    0    0   11    0    0   60    0    0    0    0    0    0    0    0    0    0    2    0    0   63    0    0    0   33    0
   83    0    0    0   43   32    0    0   49    0    0   27    0    0   30    0    0   38    0   63    0    0    0    0    0    0   99    0    0   19    0    0   77    0    0    0    0    0    0   48    0   37    0  100    0
    0    0    0   46    0   51    0    0   10    0    0    0    0   81    0    0    0    0    5   86    0    0    0    0    0    0    0    0    0   93    0    0   19    0    0    0    0    0   83    0    0   62    0    0    0
   32    0    0    0   62    0    0    0    0   31    0    0   18   40   49   38    0    0    0   60    0   12   39    0   47    0    0    0   65    0   31    0    0    0    0    0   23    0    0    0   19    0    0    0    0
    0   29    0    0    0    0    0   24   89    0    0    0    0   22   20    0    5    0    0   93    0    0    0   82    0    0    0    0    0    0   50    0    0    5    0   72    0    0    0    0   57    0    0   98    0
    0    0   22    2    0    0    0    0    0    0    0    0    0    0    8   63   86   60   93    0    0   40    0    0    0    0    0    0   96   60    0    0    0   39    0    0    0    0    0    0    0   11   21    0    0
   11    0    0    0    0    0    0   90    0   40   91    0   58   47    0    0    0    0    0    0    0    0    0    0    0    0    0    0    0   11    0    0    0    0    0    0    0    0    0   86   23   70   30    0    0
    0    0    0    0    0    0   67    0    0    0    0   71    0    0    0    0    0   12    0   40    0    0    0    0   58    0   18    0    0    0    0   24    0    2    0    0    4   17    0   71    2    0    0    0    0
    0    0    0    0    0    0    0   55   37   28    0    0    0    0   11    0    0   39    0    0    0    0    0    0    0    0    0   84    0    0   66    0    0    0    0    0    0    0    0    0    0   65    0    0    0
    0    0    0   86    0   19    0    0    0   30   98   63    0    0    0    0    0    0   82    0    0    0    0    0   67    0    0   23    0    0    0   31    0    0    0    0    0   15    0   53    0   67    0    0    0
    0    0    0    0    0    0    0    0    0    0    0    0   34    0    0    0    0   47    0    0    0   58    0   67    0    0    0    4    0   54    0   15    0    0    0    0    0    0    0    0    0    0    0   64    0
    0   20    0    0   63    0   17   65    0    0    0    0    0    0   60    0    0    0    0    0    0    0    0    0    0    0    0    0   36   94    0   39    0    0   60    0    0    0    0    0    0    0    0    0    9
    0    0    0    0    0    0    0    0   90    0    0    0   55   37    0   99    0    0    0    0    0   18    0    0    0    0    0    0    0    0    0    0   92   18    0    0    0    0    0    0    0   24    0   34   19
   47    0    0    0    0    0    0   56    0    0   44    0   46    0    0    0    0    0    0    0    0    0   84   23    4    0    0    0    0   43    0    0    0    0    0    0   73    0   79    0    0    0   95    0    0
    0    0    0   42   97    0    0    0    0    0    0    0   75    0    0    0    0   65    0   96    0    0    0    0    0   36    0    0    0    0   90    0    0    0    0    0    0    0    0    0    0    0    0    0    0
    0    0   45    0    0    0    0    0    0    0    0    0    0    0    0   19   93    0    0   60   11    0    0    0   54   94    0   43    0    0    0    0    0   66    0    0    0    0    0    0   90   34    0    0    0
    0    0    0    0    0    0   59    0    0   38    0   11    0    0    0    0    0   31   50    0    0    0   66    0    0    0    0    0   90    0    0    0    0    0    0    0   58    0    0    0    0    0    0   16    0
    0    0   32    0    0    0    0    0    0    0    0    0   86   21    0    0    0    0    0    0    0   24    0   31   15   39    0    0    0    0    0    0    0    0    0   98   34    0    0    0   98    0    0    0    0
   29   19    0   15    0    0    0    0    0    0    0    0    0    0    0   77   19    0    0    0    0    0    0    0    0    0   92    0    0    0    0    0    0    0   92    0   41    0    0    0    4    0    0    0    0
    0    0   90   10    0   98   83   93    0    0   57    0    0    0    0    0    0    0    5   39    0    2    0    0    0    0   18    0    0   66    0    0    0    0    0    0    7   46    0    0    0    0    0    0   60
   64    0    0    0    0   30    0    0    0    0   53    0    0    0    0    0    0    0    0    0    0    0    0    0    0   60    0    0    0    0    0    0   92    0    0    0   52   49    0    0    0    0    0    0   74
    0   56    0    0    0   46    0    0    0    0    0   38    0    0    0    0    0    0   72    0    0    0    0    0    0    0    0    0    0    0    0   98    0    0    0    0    0    0    0    0   96    0    5    0    0
   25    0   23   14   36    0    0    0    0    0    0    0   31    0    2    0    0   23    0    0    0    4    0    0    0    0    0   73    0    0   58   34   41    7   52    0    0   61   34    3    0    0   15   90    0
    0    0    0    0   78    0    0    0    0   91   62    0    0    0    0    0    0    0    0    0    0   17    0   15    0    0    0    0    0    0    0    0    0   46   49    0   61    0    0    0    4    0    0    0    0
    0    0   70   84    0    0   94    0    0    0   50    0    0   77    0    0   83    0    0    0    0    0    0    0    0    0    0   79    0    0    0    0    0    0    0    0   34    0    0    0    0    0   78    0    3
    0    0    0    0   59    0    0    0    0    0   29    0    0    0   63   48    0    0    0    0   86   71    0   53    0    0    0    0    0    0    0    0    0    0    0    0    3    0    0    0    0    0    0    0    0
    0    0   20    0    0    0   81    0    0    0    0    0    0   34    0    0    0   19   57    0   23    2    0    0    0    0    0    0    0   90    0   98    4    0    0   96    0    4    0    0    0    0   50    0    0
    0   67   42    0    0    0    0    0   91    0    0    0   10    0    0   37   62    0    0   11   70    0   65   67    0    0   24    0    0   34    0    0    0    0    0    0    0    0    0    0    0    0    0   99    0
    0    0   17    0   74    0    0    7    0    0    0   68    0    0    0    0    0    0    0   21   30    0    0    0    0    0    0   95    0    0    0    0    0    0    0    5   15    0   78    0   50    0    0    0    0
    0    0   58    0    0    6    0    0    0    0    0    0    0    0   33  100    0    0   98    0    0    0    0    0   64    0   34    0    0    0   16    0    0    0    0    0   90    0    0    0    0   99    0    0    0
   32    0    0   24   73    0    0    0    0    0    0   34    0    0    0    0    0    0    0    0    0    0    0    0    0    9   19    0    0    0    0    0    0   60   74    0    0    0    3    0    0    0    0    0    0
